32	0

0	1	2
8	1	3
9	1	4
7	2	5	6
3	2	7	8
1	2	7	8
8	1	9
1	1	9
5	1	10
4	1	11
6	2	12	14
4	1	13
5	1	15
5	1	15
3	1	16
2	1	17
1	2	18	19
7	2	20	22
1	2	20	22
5	1	21
7	1	23
8	1	23
6	1	24
9	1	25
10	1	26
3	2	27	28
8	1	29
7	1	29
7	1	30
5	1	31
5	1	32
0	0
